c WARNING: for repeatability, setting FPU to use double precision
d VARIABLES            54718        
d CONSTRAINTS          236427       
c ============================[ Problem Statistics ]=============================
c |                                                                             |
c |  Number of variables:         54718                                         |
c |  Number of clauses:          236427                                         |
c |  Parse time:                   0.03 s                                       |
c |                                                                             |
c ============================[ Search Statistics ]==============================
c | Conflicts |          ORIGINAL         |          LEARNT          | Progress |
c |           |    Vars  Clauses Literals |    Limit  Clauses Lit/Cl |          |
c ===============================================================================
c |       100 |   44546   207723   505290 |    76165      100     17 | 18.590 % |
c |       250 |   44546   207723   505290 |    83781      250     46 | 18.590 % |
c |       475 |   44546   207723   505290 |    92159      475     64 | 18.590 % |
c |       812 |   44546   207723   505290 |   101375      812     57 | 18.590 % |
c |      1318 |   44546   207723   505290 |   111513     1318     56 | 18.590 % |
c |      2077 |   44546   207723   505290 |   122664     2077     64 | 18.590 % |
c |      3216 |   44546   207723   505290 |   134931     3216     86 | 18.590 % |
c |      4924 |   44546   207723   505290 |   148424     4924     81 | 18.590 % |
c |      7486 |   44546   207723   505290 |   163266     7486     78 | 18.590 % |
c |     11330 |   44546   207723   505290 |   179593    11330     86 | 18.590 % |
c |     17096 |   44546   207723   505290 |   197552    17096     83 | 18.590 % |
c |     25745 |   44545   207714   505269 |   217307    25722     81 | 18.592 % |
c ===============================================================================
c restarts              : 94
c conflicts             : 26989          (7572 /sec)
c decisions             : 85685          (0.00 % random) (24040 /sec)
c propagations          : 20866821       (5854523 /sec)
c conflict literals     : 2174228        (35.06 % deleted)
d RESTARTS             94
d FAILURES             26989        
d NODES                85685        
d BACKTRACKS           85685        
d PROPAGATIONS         20866821     
d NOGOODSIZE           80.56 
d MEMORY               36.00 
d TIME                 3.56422 

s UNSATISFIABLE
